6152
6151
6082
6154
6068
6047
6116
6034
6066
6126
6205
6093
6095
6064
6240
6050
6112
6169
6213
6128
6272
6172
6119
6142
6134
6229
6143
6148
6069
6179
6226
6153
6129
6133
6223
6178
6186
6149
6086
6098
6131
6181
6073
6147
6114
6097
6077
6124
6012
6064
6169
6101
6127
6137
6092
6221
6236
6155
6160
6101
6133
6160
6114
6135
6109
6224
6195
6207
6126
6118
6015
6169
6165
6177
6233
6030
6104
6240
6103
6257
6055
6227
6158
6131
6123
6139
6228
6053
6135
6142
6093
6170
6185
6186
6221
6166
6126
6167
6046
6263
